GLPSOL--GLPK LP/MIP Solver 5.0
Parameter(s) specified in the command line:
 --cpxlp --first inputs/new_no_tr/order/default80_tiers_input.lp -o solutions/new_no_tr/default80_tiers_input.lp
Reading problem data from 'inputs/new_no_tr/order/default80_tiers_input.lp'...
inputs/new_no_tr/order/default80_tiers_input.lp:38477: warning: lower bound of variable 'm_1_1' redefined
inputs/new_no_tr/order/default80_tiers_input.lp:38477: warning: upper bound of variable 'm_1_1' redefined
37873 rows, 12881 columns, 116275 non-zeros
12881 integer variables, 12284 of which are binary
51277 lines were read
GLPK Integer Optimizer 5.0
37873 rows, 12881 columns, 116275 non-zeros
12881 integer variables, 12284 of which are binary
Preprocessing...
334 hidden packing inequaliti(es) were detected
3659 hidden covering inequaliti(es) were detected
5964 constraint coefficient(s) were reduced
35901 rows, 11962 columns, 108935 non-zeros
11962 integer variables, 11881 of which are binary
Scaling...
 A: min|aij| =  1.000e+00  max|aij| =  1.024e+04  ratio =  1.024e+04
GM: min|aij| =  3.344e-01  max|aij| =  2.991e+00  ratio =  8.944e+00
EQ: min|aij| =  1.118e-01  max|aij| =  1.000e+00  ratio =  8.944e+00
2N: min|aij| =  6.250e-02  max|aij| =  1.000e+00  ratio =  1.600e+01
Constructing initial basis...
Size of triangular part is 32919
Solving LP relaxation...
GLPK Simplex Optimizer 5.0
35901 rows, 11962 columns, 108935 non-zeros
      0: obj =   3.891200000e+04 inf =   8.012e+02 (678)
Perturbing LP to avoid stalling [204]...
   2378: obj =   3.891200045e+04 inf =   7.773e+02 (661) 22
   4026: obj =   4.398349785e+04 inf =   6.876e+02 (584) 16
   5385: obj =   5.042459750e+04 inf =   6.062e+02 (518) 14
   6611: obj =   5.501930386e+04 inf =   5.081e+02 (432) 12
   7779: obj =   5.890133517e+04 inf =   4.169e+02 (336) 11
   8892: obj =   6.545909671e+04 inf =   3.608e+02 (288) 11
  10027: obj =   6.883391929e+04 inf =   3.213e+02 (265) 11
  11140: obj =   7.682919357e+04 inf =   2.554e+02 (231) 11
  12211: obj =   8.185249607e+04 inf =   2.194e+02 (185) 10
  13219: obj =   8.530093086e+04 inf =   1.767e+02 (124) 10
  14277: obj =   8.950842067e+04 inf =   1.394e+02 (103) 11
  15302: obj =   9.475405578e+04 inf =   1.095e+02 (100) 10
  16251: obj =   9.784642841e+04 inf =   8.969e+01 (87) 9
  17234: obj =   1.017104472e+05 inf =   7.455e+01 (80) 9
  18215: obj =   1.084063321e+05 inf =   5.686e+01 (77) 10
  19123: obj =   1.106134923e+05 inf =   4.256e+01 (62) 9
  20047: obj =   1.112288290e+05 inf =   2.285e+01 (43) 9
  20995: obj =   1.106173267e+05 inf =   1.183e+01 (30) 9
  21923: obj =   1.094473461e+05 inf =   5.680e-01 (1) 9
  22034: obj =   1.092571032e+05 inf =   1.319e-05 (0) 1
* 23017: obj =   9.705139322e+04 inf =   2.301e-05 (3165) 10
* 24016: obj =   8.889847741e+04 inf =   4.959e-05 (3025) 9
* 24991: obj =   8.236307193e+04 inf =   2.520e-05 (3716) 10
* 25968: obj =   7.661868678e+04 inf =   1.845e-05 (3576) 9
* 26974: obj =   7.249596690e+04 inf =   2.261e-05 (3731) 10
* 27940: obj =   6.843741232e+04 inf =   4.096e-05 (3826) 10
* 28959: obj =   6.587107706e+04 inf =   6.043e-05 (3761) 10
* 29973: obj =   6.393033573e+04 inf =   8.004e-05 (3515) 10
* 31000: obj =   6.211980807e+04 inf =   1.665e-04 (3672) 10
* 32044: obj =   6.074458195e+04 inf =   1.342e-04 (3773) 10
* 33081: obj =   6.003443511e+04 inf =   4.248e-04 (3798) 10
* 34111: obj =   5.973335430e+04 inf =   2.726e-04 (3661) 10
* 35176: obj =   5.882503399e+04 inf =   1.930e-04 (3997) 11
* 36194: obj =   5.850206535e+04 inf =   2.336e-04 (3684) 10
* 37253: obj =   5.805474678e+04 inf =   5.156e-04 (3695) 10
* 38311: obj =   5.785527003e+04 inf =   1.862e-04 (3906) 11
* 39331: obj =   5.754365718e+04 inf =   1.621e-04 (4034) 10
* 40402: obj =   5.744665192e+04 inf =   3.159e-04 (3572) 10
* 41426: obj =   5.729910335e+04 inf =   2.824e-04 (3579) 10
* 42458: obj =   5.708056384e+04 inf =   1.144e-04 (3594) 10
* 43511: obj =   5.626304275e+04 inf =   1.923e-04 (3711) 11
* 44552: obj =   5.590927515e+04 inf =   1.700e-04 (3804) 10
* 45609: obj =   5.512493162e+04 inf =   1.748e-04 (4059) 10
* 46630: obj =   5.453361027e+04 inf =   1.288e-04 (3569) 10
* 47687: obj =   5.423802695e+04 inf =   1.623e-04 (3960) 11
* 48722: obj =   5.323300493e+04 inf =   3.185e-04 (4040) 10
* 49808: obj =   5.272951364e+04 inf =   7.233e-04 (4124) 10
* 50835: obj =   5.263636423e+04 inf =   5.254e-04 (3984) 11
* 51914: obj =   5.204915074e+04 inf =   2.381e-04 (3915) 10
* 52977: obj =   5.186375468e+04 inf =   1.458e-04 (4103) 11
* 54048: obj =   5.170458719e+04 inf =   2.013e-04 (3949) 10
* 55117: obj =   5.145077425e+04 inf =   3.993e-04 (4258) 10
* 56145: obj =   5.131994748e+04 inf =   3.178e-04 (4182) 11
* 57229: obj =   5.118402546e+04 inf =   2.438e-04 (3762) 10
* 58308: obj =   5.108574761e+04 inf =   1.841e-04 (4151) 11
* 59348: obj =   5.083277332e+04 inf =   1.406e-04 (3637) 10
* 60405: obj =   5.065081443e+04 inf =   9.379e-05 (4186) 10
* 61464: obj =   5.032985806e+04 inf =   6.848e-05 (4119) 11
* 62481: obj =   5.013009143e+04 inf =   5.165e-05 (4023) 10
* 63502: obj =   4.994193109e+04 inf =   3.923e-05 (3930) 10
* 64528: obj =   4.984146677e+04 inf =   5.351e-05 (4411) 10
* 65540: obj =   4.973163819e+04 inf =   7.701e-05 (3649) 9
* 66587: obj =   4.966516385e+04 inf =   5.410e-05 (3918) 11
* 67579: obj =   4.948467408e+04 inf =   4.427e-05 (3985) 9
* 68599: obj =   4.933436338e+04 inf =   3.778e-05 (4234) 10
* 69623: obj =   4.913442314e+04 inf =   4.389e-05 (3825) 10
* 70661: obj =   4.900064045e+04 inf =   4.284e-05 (3834) 10
* 71652: obj =   4.888511703e+04 inf =   4.631e-05 (4221) 10
* 72676: obj =   4.875732783e+04 inf =   8.657e-05 (4221) 10
* 73672: obj =   4.868960607e+04 inf =   5.523e-05 (3798) 10
* 74701: obj =   4.860441713e+04 inf =   4.995e-05 (4085) 10
* 75748: obj =   4.855003448e+04 inf =   6.163e-05 (4126) 10
* 76813: obj =   4.850100738e+04 inf =   3.623e-05 (3956) 10
* 77888: obj =   4.847046691e+04 inf =   4.361e-05 (3914) 11
* 78966: obj =   4.844694678e+04 inf =   4.181e-05 (3446) 10
* 80049: obj =   4.843261512e+04 inf =   5.201e-05 (3812) 11
* 81137: obj =   4.842317927e+04 inf =   8.147e-05 (3603) 10
* 82221: obj =   4.840997372e+04 inf =   1.028e-04 (3734) 11
* 83296: obj =   4.839587451e+04 inf =   8.744e-05 (4040) 10
* 84356: obj =   4.838984313e+04 inf =   1.004e-04 (4023) 11
* 85378: obj =   4.838068489e+04 inf =   7.661e-05 (4206) 10
* 86434: obj =   4.836929045e+04 inf =   6.740e-05 (4071) 10
* 87479: obj =   4.835877297e+04 inf =   6.319e-05 (4292) 10
* 88531: obj =   4.835110019e+04 inf =   6.541e-05 (3187) 10
* 89592: obj =   4.834659252e+04 inf =   7.478e-05 (3758) 11
* 90645: obj =   4.833711141e+04 inf =   8.206e-05 (3756) 10
* 91704: obj =   4.833205500e+04 inf =   6.212e-05 (2805) 10
* 92765: obj =   4.832926525e+04 inf =   9.982e-05 (4125) 11
* 93820: obj =   4.832184263e+04 inf =   9.445e-05 (3524) 10
* 94908: obj =   4.831790995e+04 inf =   1.035e-04 (4068) 11
* 96042: obj =   4.831086130e+04 inf =   7.837e-05 (3898) 11
* 97141: obj =   4.830763330e+04 inf =   8.415e-05 (3383) 10
* 98207: obj =   4.830289730e+04 inf =   6.995e-05 (4114) 11
* 99212: obj =   4.829777163e+04 inf =   8.281e-05 (3810) 9
*100247: obj =   4.829476669e+04 inf =   8.639e-05 (3009) 10
*101318: obj =   4.829221980e+04 inf =   8.901e-05 (3359) 11
*102390: obj =   4.828932150e+04 inf =   1.245e-04 (3172) 10
*103450: obj =   4.828713627e+04 inf =   9.268e-05 (3752) 10
*104472: obj =   4.828482199e+04 inf =   1.108e-04 (3331) 10
*105493: obj =   4.828342712e+04 inf =   1.286e-04 (3827) 10
*106549: obj =   4.828178399e+04 inf =   1.230e-04 (2736) 11
*107599: obj =   4.827942332e+04 inf =   1.147e-04 (3533) 10
*108639: obj =   4.827758357e+04 inf =   1.095e-04 (3165) 10
*109645: obj =   4.827339120e+04 inf =   8.576e-05 (3665) 10
*110665: obj =   4.827049653e+04 inf =   8.712e-05 (3523) 9
*111711: obj =   4.826687889e+04 inf =   9.761e-05 (3482) 11
*112769: obj =   4.826475563e+04 inf =   9.035e-05 (3238) 10
*113806: obj =   4.826248467e+04 inf =   8.489e-05 (2547) 10
*114828: obj =   4.826182315e+04 inf =   1.307e-04 (3373) 10
*115887: obj =   4.825999210e+04 inf =   1.125e-04 (3683) 10
*116948: obj =   4.825796444e+04 inf =   1.041e-04 (3533) 10
*118007: obj =   4.825617082e+04 inf =   1.094e-04 (2107) 10
*119025: obj =   4.825485652e+04 inf =   7.963e-05 (3721) 10
*120086: obj =   4.825395453e+04 inf =   9.527e-05 (3797) 11
*121163: obj =   4.825302715e+04 inf =   9.678e-05 (2615) 10
*122223: obj =   4.825243478e+04 inf =   7.912e-05 (2283) 10
*123258: obj =   4.825168497e+04 inf =   8.568e-05 (3045) 10
*124331: obj =   4.825041031e+04 inf =   9.754e-05 (1812) 10
*125411: obj =   4.824984435e+04 inf =   1.007e-04 (2475) 11
*126493: obj =   4.824903846e+04 inf =   9.429e-05 (3367) 10
*127573: obj =   4.824848977e+04 inf =   1.072e-04 (3631) 10
*128659: obj =   4.824808400e+04 inf =   9.972e-05 (1990) 11
*129731: obj =   4.824733793e+04 inf =   1.040e-04 (2081) 10
*130813: obj =   4.824680427e+04 inf =   1.139e-04 (3752) 10
*131907: obj =   4.824641065e+04 inf =   1.349e-04 (1997) 11
*132985: obj =   4.824595584e+04 inf =   1.170e-04 (2618) 10
*134051: obj =   4.824562816e+04 inf =   1.146e-04 (2188) 10
*135103: obj =   4.824552413e+04 inf =   1.165e-04 (1821) 10
*136191: obj =   4.824536722e+04 inf =   1.134e-04 (909) 10
Removing LP perturbation [137009]...
*137009: obj =   4.824530767e+04 inf =   8.470e-13 (0) 7
OPTIMAL LP SOLUTION FOUND
Integer optimization begins...
Long-step dual simplex will be used
+137009: mip =     not found yet >=              -inf        (1; 0)
#138530: obj =   4.824600000e+04 inf =   0.000e+00 (1624) 15 86%
#139269: obj =   4.824599999e+04 inf =   0.000e+00 (2560) 8 100%
#140003: obj =   4.824599999e+04 inf =   0.000e+00 (3770) 7 100%
#140718: obj =   4.824599999e+04 inf =   0.000e+00 (3758) 7 100%
#141494: obj =   4.824599997e+04 inf =   0.000e+00 (13609) 8 100%
#142276: obj =   4.824599996e+04 inf =   0.000e+00 (11620) 7 100%
#143022: obj =   4.824599997e+04 inf =   0.000e+00 (13288) 7 100%
#143770: obj =   4.824599996e+04 inf =   0.000e+00 (8220) 7 100%
#144518: obj =   4.824599997e+04 inf =   0.000e+00 (10282) 7 100%
#145219: obj =   4.824599997e+04 inf =   0.000e+00 (15841) 7 100%
#145944: obj =   4.824599998e+04 inf =   0.000e+00 (13134) 7 100%
#146656: obj =   4.824599999e+04 inf =   0.000e+00 (13465) 7 100%
#147347: obj =   4.824599999e+04 inf =   0.000e+00 (9695) 6 100%
#148060: obj =   4.824599999e+04 inf =   0.000e+00 (14303) 7 100%
#148776: obj =   4.824599999e+04 inf =   0.000e+00 (14849) 7 100%
#149469: obj =   4.824599999e+04 inf =   0.000e+00 (12323) 7 100%
#150185: obj =   4.824600000e+04 inf =   0.000e+00 (12507) 7 99%
#150885: obj =   4.824600000e+04 inf =   0.000e+00 (9902) 7 100%
#151594: obj =   4.824600000e+04 inf =   0.000e+00 (11347) 7 100%
#152299: obj =   4.824600000e+04 inf =   0.000e+00 (7988) 7 100%
#153000: obj =   4.824600000e+04 inf =   0.000e+00 (14180) 7 100%
#153722: obj =   4.824600000e+04 inf =   0.000e+00 (4814) 7 100%
#154431: obj =   4.824600000e+04 inf =   0.000e+00 (8745) 7 100%
#155166: obj =   4.824600000e+04 inf =   0.000e+00 (7219) 7 100%
#155863: obj =   4.824599999e+04 inf =   0.000e+00 (9323) 7 100%
#156591: obj =   4.824599999e+04 inf =   0.000e+00 (9480) 7 100%
#157323: obj =   4.824600000e+04 inf =   0.000e+00 (6922) 7 100%
#158025: obj =   4.824599999e+04 inf =   0.000e+00 (12917) 7 100%
#158737: obj =   4.824599999e+04 inf =   0.000e+00 (4711) 7 100%
#159426: obj =   4.824600000e+04 inf =   0.000e+00 (13992) 7 100%
#160130: obj =   4.824600000e+04 inf =   0.000e+00 (9368) 7 99%
#160817: obj =   4.824599999e+04 inf =   0.000e+00 (9435) 6 100%
#161534: obj =   4.824600000e+04 inf =   0.000e+00 (7182) 7 100%
#162223: obj =   4.824600000e+04 inf =   0.000e+00 (4915) 7 100%
#162936: obj =   4.824600000e+04 inf =   0.000e+00 (8468) 7 97%
#163635: obj =   4.824600000e+04 inf =   0.000e+00 (4595) 7 99%
#164357: obj =   4.824600000e+04 inf =   0.000e+00 (4169) 7 98%
#165060: obj =   4.824600000e+04 inf =   0.000e+00 (6794) 7 84%
#165583: obj =   4.824600007e+04 inf =   0.000e+00 (7075) 5 8%
#166219: obj =   4.824600000e+04 inf =   0.000e+00 (11407) 6 42%
#166862: obj =   4.824645749e+04 inf =   0.000e+00 (6114) 7 48%
#167606: obj =   4.824706275e+04 inf =   0.000e+00 (5537) 7 72%
#168377: obj =   4.824775477e+04 inf =   0.000e+00 (3465) 8 73%
#169141: obj =   4.824820678e+04 inf =   0.000e+00 (2654) 7 67%
#169939: obj =   4.824852745e+04 inf =   0.000e+00 (3267) 8 66%
#170712: obj =   4.824883109e+04 inf =   0.000e+00 (1792) 7 70%
#171497: obj =   4.824905009e+04 inf =   0.000e+00 (2141) 8 57%
#172324: obj =   4.824912964e+04 inf =   0.000e+00 (12) 8 50%
#172337: obj =   4.824912964e+04 inf =   1.398e-13 (0) 38%
+172337: mip =     not found yet >=   4.824600000e+04        (2; 0)
Time used: 245.4 secs.  Memory used: 39.9 Mb.
#174210: obj =   4.824999999e+04 inf =   0.000e+00 (2235) 18 89%
#175110: obj =   4.824999999e+04 inf =   0.000e+00 (4797) 9 100%
#175980: obj =   4.824999996e+04 inf =   0.000e+00 (11601) 8 100%
#176880: obj =   4.824999995e+04 inf =   0.000e+00 (12524) 9 100%
#177749: obj =   4.824999996e+04 inf =   0.000e+00 (11293) 8 100%
#178643: obj =   4.824999997e+04 inf =   0.000e+00 (12460) 8 100%
#179536: obj =   4.824999998e+04 inf =   0.000e+00 (10974) 8 100%
#180404: obj =   4.824999998e+04 inf =   0.000e+00 (10251) 9 100%
#181263: obj =   4.824999998e+04 inf =   0.000e+00 (12848) 8 100%
#182110: obj =   4.824999998e+04 inf =   0.000e+00 (13610) 8 100%
#182953: obj =   4.824999998e+04 inf =   0.000e+00 (12191) 8 100%
#183798: obj =   4.824999999e+04 inf =   0.000e+00 (12580) 8 100%
#184594: obj =   4.824999999e+04 inf =   0.000e+00 (12423) 8 100%
#185403: obj =   4.824999999e+04 inf =   0.000e+00 (10802) 8 100%
#186196: obj =   4.824999999e+04 inf =   0.000e+00 (13350) 7 100%
#186985: obj =   4.824999999e+04 inf =   0.000e+00 (9288) 8 100%
#187776: obj =   4.824999999e+04 inf =   0.000e+00 (15853) 8 100%
#188552: obj =   4.824999999e+04 inf =   0.000e+00 (14402) 8 100%
#189340: obj =   4.824999999e+04 inf =   0.000e+00 (13282) 7 100%
#190101: obj =   4.824999999e+04 inf =   0.000e+00 (13525) 8 100%
#190879: obj =   4.824999999e+04 inf =   0.000e+00 (12114) 7 100%
#191629: obj =   4.824999999e+04 inf =   0.000e+00 (12772) 8 99%
#192410: obj =   4.824999999e+04 inf =   0.000e+00 (6792) 7 100%
#193156: obj =   4.824999999e+04 inf =   0.000e+00 (14420) 7 100%
#193931: obj =   4.824999999e+04 inf =   0.000e+00 (8579) 8 100%
#194720: obj =   4.824999999e+04 inf =   0.000e+00 (7971) 8 100%
#195510: obj =   4.824999999e+04 inf =   0.000e+00 (16573) 8 100%
#196300: obj =   4.824999999e+04 inf =   0.000e+00 (13619) 7 100%
#197099: obj =   4.824999999e+04 inf =   0.000e+00 (7963) 8 100%
#197896: obj =   4.824999999e+04 inf =   0.000e+00 (11956) 8 100%
#198691: obj =   4.824999998e+04 inf =   0.000e+00 (15973) 8 99%
#199476: obj =   4.824999999e+04 inf =   0.000e+00 (10157) 7 100%
#200262: obj =   4.824999999e+04 inf =   0.000e+00 (4578) 8 100%
#201056: obj =   4.824999999e+04 inf =   0.000e+00 (7250) 8 99%
#201853: obj =   4.824999999e+04 inf =   0.000e+00 (11710) 8 100%
#202649: obj =   4.824999999e+04 inf =   0.000e+00 (12642) 7 99%
#203440: obj =   4.824999999e+04 inf =   0.000e+00 (11510) 8 100%
#204234: obj =   4.824999999e+04 inf =   0.000e+00 (12631) 8 100%
#205028: obj =   4.824999999e+04 inf =   0.000e+00 (5882) 8 100%
#205805: obj =   4.824999999e+04 inf =   0.000e+00 (7984) 7 99%
#206573: obj =   4.825000000e+04 inf =   0.000e+00 (7166) 8 99%
#207349: obj =   4.825000000e+04 inf =   0.000e+00 (8146) 7 100%
#208105: obj =   4.825000000e+04 inf =   0.000e+00 (7342) 8 99%
#208898: obj =   4.825000000e+04 inf =   0.000e+00 (8691) 8 94%
#209456: obj =   4.824999999e+04 inf =   0.000e+00 (5359) 5 10%
#210175: obj =   4.825000002e+04 inf =   0.000e+00 (10023) 7 60%
#210851: obj =   4.825136547e+04 inf =   0.000e+00 (9039) 8 50%
#211671: obj =   4.825254247e+04 inf =   0.000e+00 (3753) 7 69%
#212495: obj =   4.825350683e+04 inf =   0.000e+00 (7225) 9 72%
#213311: obj =   4.825430637e+04 inf =   0.000e+00 (14107) 7 73%
#214133: obj =   4.825521445e+04 inf =   0.000e+00 (9335) 8 74%
#214969: obj =   4.825574071e+04 inf =   0.000e+00 (3247) 8 73%
#215792: obj =   4.825629882e+04 inf =   0.000e+00 (3237) 8 67%
#216628: obj =   4.825670384e+04 inf =   0.000e+00 (2069) 8 69%
#217483: obj =   4.825704871e+04 inf =   0.000e+00 (1149) 9 62%
#218329: obj =   4.825730686e+04 inf =   0.000e+00 (1742) 8 58%
#219057: obj =   4.825736782e+04 inf =   6.809e-15 (0) 7 54%
+219057: mip =     not found yet >=   4.824600000e+04        (3; 0)
Time used: 534.9 secs.  Memory used: 39.9 Mb.
#220949: obj =   4.825799999e+04 inf =   0.000e+00 (2557) 18 89%
#221843: obj =   4.825799999e+04 inf =   0.000e+00 (3364) 9 100%
#222740: obj =   4.825799998e+04 inf =   0.000e+00 (15352) 9 100%
#223599: obj =   4.825799997e+04 inf =   0.000e+00 (13759) 8 100%
#224413: obj =   4.825799996e+04 inf =   0.000e+00 (15396) 8 100%
#225257: obj =   4.825799996e+04 inf =   0.000e+00 (12202) 8 100%
#226096: obj =   4.825799995e+04 inf =   0.000e+00 (12621) 8 100%
#226936: obj =   4.825799996e+04 inf =   0.000e+00 (12869) 8 100%
#227796: obj =   4.825799997e+04 inf =   0.000e+00 (12575) 8 100%
#228611: obj =   4.825799997e+04 inf =   0.000e+00 (11790) 7 100%
#229469: obj =   4.825799998e+04 inf =   0.000e+00 (11710) 9 100%
#230312: obj =   4.825799998e+04 inf =   0.000e+00 (12359) 8 100%
#231141: obj =   4.825799998e+04 inf =   0.000e+00 (13812) 8 100%
#231961: obj =   4.825799999e+04 inf =   0.000e+00 (14602) 7 100%
#232770: obj =   4.825799999e+04 inf =   0.000e+00 (13379) 8 100%
#233563: obj =   4.825799998e+04 inf =   0.000e+00 (13940) 8 100%
#234357: obj =   4.825799999e+04 inf =   0.000e+00 (13135) 7 100%
#235170: obj =   4.825799999e+04 inf =   0.000e+00 (14898) 8 100%
#235989: obj =   4.825799999e+04 inf =   0.000e+00 (13031) 8 100%
#236781: obj =   4.825799999e+04 inf =   0.000e+00 (13181) 8 100%
#237575: obj =   4.825799999e+04 inf =   0.000e+00 (11436) 7 100%
#238392: obj =   4.825799999e+04 inf =   0.000e+00 (14198) 8 100%
#239197: obj =   4.825799999e+04 inf =   0.000e+00 (12056) 8 100%
#240019: obj =   4.825799999e+04 inf =   0.000e+00 (14068) 7 100%
#240817: obj =   4.825799999e+04 inf =   0.000e+00 (14895) 8 100%
#241623: obj =   4.825800000e+04 inf =   0.000e+00 (12482) 8 100%
#242411: obj =   4.825800000e+04 inf =   0.000e+00 (12409) 8 100%
#243187: obj =   4.825800000e+04 inf =   0.000e+00 (13174) 7 100%
#243951: obj =   4.825800000e+04 inf =   0.000e+00 (12205) 8 100%
#244721: obj =   4.825800000e+04 inf =   0.000e+00 (10471) 7 100%
#245481: obj =   4.825800000e+04 inf =   0.000e+00 (13210) 7 100%
#246246: obj =   4.825800000e+04 inf =   0.000e+00 (13264) 8 100%
#247020: obj =   4.825800000e+04 inf =   0.000e+00 (14882) 7 100%
#247789: obj =   4.825800000e+04 inf =   0.000e+00 (15061) 8 100%
#248555: obj =   4.825800000e+04 inf =   0.000e+00 (14065) 7 100%
#249324: obj =   4.825800000e+04 inf =   0.000e+00 (11490) 7 100%
#250077: obj =   4.825800000e+04 inf =   0.000e+00 (13998) 8 100%
#250822: obj =   4.825800000e+04 inf =   0.000e+00 (11459) 7 100%
#251559: obj =   4.825800000e+04 inf =   0.000e+00 (11115) 7 100%
#252296: obj =   4.825800000e+04 inf =   0.000e+00 (16384) 7 100%
#253054: obj =   4.825800000e+04 inf =   0.000e+00 (15216) 8 100%
#253818: obj =   4.825800000e+04 inf =   0.000e+00 (16151) 7 100%
#254580: obj =   4.825800000e+04 inf =   0.000e+00 (13961) 8 100%
#255305: obj =   4.825800000e+04 inf =   0.000e+00 (13610) 7 100%
#256052: obj =   4.825800000e+04 inf =   0.000e+00 (13957) 7 100%
#256812: obj =   4.825800000e+04 inf =   0.000e+00 (14279) 7 100%
#257530: obj =   4.825800000e+04 inf =   0.000e+00 (14891) 7 100%
#258250: obj =   4.825800000e+04 inf =   0.000e+00 (13437) 7 100%
#259010: obj =   4.825800000e+04 inf =   0.000e+00 (8072) 8 100%
#259759: obj =   4.825799999e+04 inf =   0.000e+00 (13408) 7 100%
#260482: obj =   4.825799999e+04 inf =   0.000e+00 (12274) 7 100%
#261224: obj =   4.825799999e+04 inf =   0.000e+00 (13960) 8 100%
#261975: obj =   4.825800000e+04 inf =   0.000e+00 (10579) 7 100%
#262678: obj =   4.825800000e+04 inf =   0.000e+00 (7991) 7 100%
#263392: obj =   4.825800000e+04 inf =   0.000e+00 (10696) 7 100%
#264120: obj =   4.825799999e+04 inf =   0.000e+00 (5843) 7 100%
#264819: obj =   4.825800000e+04 inf =   0.000e+00 (13604) 7 100%
#265520: obj =   4.825800000e+04 inf =   0.000e+00 (8238) 7 100%
#266242: obj =   4.825800000e+04 inf =   0.000e+00 (16017) 7 99%
#266958: obj =   4.825800000e+04 inf =   0.000e+00 (9540) 7 100%
#267657: obj =   4.825800000e+04 inf =   0.000e+00 (9557) 7 100%
#268370: obj =   4.825800000e+04 inf =   0.000e+00 (15547) 7 100%
#269098: obj =   4.825800000e+04 inf =   0.000e+00 (8228) 7 100%
#269798: obj =   4.825800000e+04 inf =   0.000e+00 (5251) 7 100%
#270529: obj =   4.825800000e+04 inf =   0.000e+00 (9189) 7 100%
#271231: obj =   4.825800000e+04 inf =   0.000e+00 (14946) 7 100%
#271949: obj =   4.825800000e+04 inf =   0.000e+00 (6284) 7 100%
#272677: obj =   4.825800001e+04 inf =   0.000e+00 (5310) 7 100%
#273385: obj =   4.825800001e+04 inf =   0.000e+00 (5043) 7 100%
#274119: obj =   4.825800000e+04 inf =   0.000e+00 (6968) 7 99%
#274841: obj =   4.825800000e+04 inf =   0.000e+00 (12316) 7 100%
#275560: obj =   4.825800001e+04 inf =   0.000e+00 (9639) 7 99%
#276306: obj =   4.825800001e+04 inf =   0.000e+00 (3627) 7 100%
#277021: obj =   4.825800001e+04 inf =   0.000e+00 (6379) 7 99%
#277753: obj =   4.825800001e+04 inf =   0.000e+00 (6503) 7 98%
#278504: obj =   4.825800002e+04 inf =   0.000e+00 (7409) 8 99%
#279257: obj =   4.825800002e+04 inf =   0.000e+00 (7941) 7 99%
#279891: obj =   4.825800002e+04 inf =   0.000e+00 (8050) 6 55%
#280408: obj =   4.825879256e+04 inf =   0.000e+00 (5955) 5 16%
#281203: obj =   4.826024160e+04 inf =   0.000e+00 (3187) 8 75%
#281978: obj =   4.826104707e+04 inf =   0.000e+00 (8134) 7 75%
#282769: obj =   4.826158060e+04 inf =   0.000e+00 (4963) 8 80%
#283587: obj =   4.826224782e+04 inf =   0.000e+00 (15177) 8 75%
#284389: obj =   4.826282750e+04 inf =   0.000e+00 (2390) 7 70%
#285196: obj =   4.826342103e+04 inf =   0.000e+00 (4492) 8 71%
#286011: obj =   4.826452087e+04 inf =   0.000e+00 (3304) 8 68%
#286856: obj =   4.826494532e+04 inf =   0.000e+00 (1519) 8 75%
#287662: obj =   4.826537661e+04 inf =   0.000e+00 (3746) 7 75%
#288478: obj =   4.826578153e+04 inf =   0.000e+00 (1801) 8 71%
#289292: obj =   4.826592357e+04 inf =   0.000e+00 (1734) 8 72%
#290115: obj =   4.826613865e+04 inf =   0.000e+00 (1122) 8 65%
#290937: obj =   4.826630205e+04 inf =   0.000e+00 (1208) 8 66%
#291285: obj =   4.826631676e+04 inf =   2.417e-14 (0) 3 49%
+291285: mip =     not found yet >=   4.824600000e+04        (4; 0)
Time used: 1002.3 secs.  Memory used: 40.0 Mb.
#293867: obj =   4.824599999e+04 inf =   0.000e+00 (2337) 17 88%
#294725: obj =   4.824599999e+04 inf =   0.000e+00 (1767) 9 100%
#295568: obj =   4.824599999e+04 inf =   0.000e+00 (2764) 8 100%
#296395: obj =   4.824599998e+04 inf =   0.000e+00 (15284) 8 100%
#297284: obj =   4.824599995e+04 inf =   0.000e+00 (13522) 9 100%
#298172: obj =   4.824599994e+04 inf =   0.000e+00 (12327) 8 100%
#298992: obj =   4.824599993e+04 inf =   0.000e+00 (13507) 8 100%
#299836: obj =   4.824599993e+04 inf =   0.000e+00 (13348) 8 100%
#300736: obj =   4.824599995e+04 inf =   0.000e+00 (12755) 8 100%
#301596: obj =   4.824599996e+04 inf =   0.000e+00 (12618) 8 100%
#302464: obj =   4.824599997e+04 inf =   0.000e+00 (10962) 8 100%
#303318: obj =   4.824599997e+04 inf =   0.000e+00 (13301) 8 100%
#304169: obj =   4.824599997e+04 inf =   0.000e+00 (9621) 8 100%
#305030: obj =   4.824599998e+04 inf =   0.000e+00 (13421) 8 100%
#305871: obj =   4.824599998e+04 inf =   0.000e+00 (11139) 8 100%
#306700: obj =   4.824599999e+04 inf =   0.000e+00 (12888) 8 100%
#307539: obj =   4.824599999e+04 inf =   0.000e+00 (11104) 8 100%
#308378: obj =   4.824599999e+04 inf =   0.000e+00 (11886) 8 100%
#309213: obj =   4.824599999e+04 inf =   0.000e+00 (9843) 8 100%
#310016: obj =   4.824599999e+04 inf =   0.000e+00 (14117) 7 100%
#310835: obj =   4.824599999e+04 inf =   0.000e+00 (12096) 8 100%
#311644: obj =   4.824599999e+04 inf =   0.000e+00 (13632) 8 100%
#312433: obj =   4.824599999e+04 inf =   0.000e+00 (15127) 8 100%
#313240: obj =   4.824599999e+04 inf =   0.000e+00 (12880) 7 100%
#314065: obj =   4.824599999e+04 inf =   0.000e+00 (13929) 8 100%
#314858: obj =   4.824600000e+04 inf =   0.000e+00 (14942) 8 100%
#315666: obj =   4.824600000e+04 inf =   0.000e+00 (11123) 8 100%
#316483: obj =   4.824600000e+04 inf =   0.000e+00 (11102) 8 100%
